Medium-instances_NetworkFacilityLocation/2023-03-27_20hr-25min-09sec/Nodes30_Arcs55_LocNodes22/Formulation-1Instance-2.log

Gurobi 9.5.2 (win64) logging started Mon Mar 27 23:14:33 2023

Set parameter LogFile to value "2023-03-27_20hr-25min-09sec/Nodes30_Arcs55_LocNodes22/Formulation-1Instance-2.log"
Set parameter TimeLimit to value 600
Set parameter IntFeasTol to value 1e-09
Set parameter DualReductions to value 0
Set parameter NonConvex to value 2
Gurobi Optimizer version 9.5.2 build v9.5.2rc0 (win64)
Thread count: 4 physical cores, 8 logical processors, using up to 8 threads
Optimize a model with 138 rows, 244 columns and 538 nonzeros
Model fingerprint: 0xa1e47006
Model has 22 quadratic objective terms
Model has 85 SOS constraints
Variable types: 222 continuous, 22 integer (22 binary)
Coefficient statistics:
  Matrix range     [5e-03, 2e+02]
  Objective range  [3e+00, 2e+02]
  QObjective range [2e+00, 2e+00]
  Bounds range     [1e+00, 1e+00]
  RHS range        [6e-02, 2e+03]
Presolve removed 1 rows and 1 columns
Presolve time: 0.00s
Presolved: 182 rows, 267 columns, 650 nonzeros
Presolved model has 85 SOS constraint(s)
Presolved model has 22 bilinear constraint(s)
Variable types: 245 continuous, 22 integer (22 binary)

Root relaxation: unbounded, 148 iterations, 0.00 seconds (0.00 work units)

    Nodes    |    Current Node    |     Objective Bounds      |     Work
 Expl Unexpl |  Obj  Depth IntInf | Incumbent    BestBd   Gap | It/Node Time

     0     0  postponed    0               -          -      -     -    0s
     0     0  postponed    0               -          -      -     -    0s
Exploring 100 nodes in MinRel heuristic
No solution found by MinRel heuristic
     0     2  postponed    0               -          -      -     -    0s
  5399  1081  postponed   30               -          -      -  58.9    5s
Exploring 10000 nodes in MinRel heuristic
H 6187  1053                    -10449.56060          -      -  59.0    7s
Feasible solution found by MinRel heuristic at node 3033
  9997   695 infeasible   33      -10449.561          -      -  57.7   10s
H12789  1049                    7214.2296283          -      -  52.5   11s
H14973  1234                    124523.01099          -      -  49.5   13s
H16548  1407                    125257.01099          -      -  48.2   14s
H17389  1451                    125644.01099          -      -  47.9   15s
H18914  1493                    169896.24086          -      -  47.6   16s
 23542  1781  postponed   43      169896.241          -      -  45.8   20s
H26437  1847                    170504.44283          -      -  44.9   22s
 30068  2021  postponed   38      170504.443          -      -  44.7   25s
 36702  2209  postponed   44      170504.443          -      -  43.8   30s
 43823  2509  postponed   34      170504.443          -      -  43.2   35s
 50952  2690  postponed   41      170504.443          -      -  41.7   40s
H51054  2690                    175654.75188          -      -  41.7   40s
 57359  2831 infeasible   37      175654.752          -      -  41.6   45s
 63437  2970 infeasible   55      175654.752          -      -  41.2   50s
H63475  2970                    175716.66709          -      -  41.2   50s
 69463  3275  postponed   48      175716.667          -      -  40.6   55s
 74962  3405  postponed   38      175716.667          -      -  40.2   60s
H77560  3471                    222715.86547          -      -  40.0   62s
 81016  3503 infeasible   51      222715.865          -      -  39.7   65s
 87253  3557  postponed   41      222715.865          -      -  39.3   70s
 95065  3614 infeasible   34      222715.865          -      -  38.7   75s
H96988  3639                    241483.54608          -      -  38.5   77s
 98801  3622 infeasible   33      241483.546          -      -  38.3   80s
H104292  3700                    244180.60535          -      -  37.8   83s
 107026  3713  postponed   45      244180.605          -      -  37.7   85s
 114410  3773 infeasible   46      244180.605          -      -  37.2   90s
H115997  3794                    244190.04277          -      -  37.1   91s
 121952  3829  postponed   40      244190.043          -      -  36.8   95s
 129182  3854 infeasible   51      244190.043          -      -  36.4  100s
 136578  3811  postponed   44      244190.043          -      -  36.1  105s
 145054  3793  postponed   45      244190.043          -      -  35.9  110s
 152119  3887  postponed   35      244190.043          -      -  35.9  115s
 159156  3927  postponed   46      244190.043          -      -  35.8  120s
 166083  3990  postponed   45      244190.043          -      -  35.9  125s
 173231  3979 infeasible   35      244190.043          -      -  36.0  130s
 179431  3925  postponed   46      244190.043          -      -  36.2  135s
 187517  3918 infeasible   47      244190.043          -      -  36.4  140s
 192889  3835  postponed   45      244190.043          -      -  36.6  145s
 200480  3760  postponed   38      244190.043          -      -  36.7  150s
 207033  3798  postponed   41      244190.043          -      -  36.7  155s
 214876  3830  postponed   47      244190.043          -      -  36.7  160s
 222534  4007  postponed   43      244190.043          -      -  36.7  165s
 228723  4123  postponed   37      244190.043          -      -  36.7  170s
H229771  4145                    258879.43950          -      -  36.7  171s
H234721  4211                    263139.45355          -      -  36.6  173s
 236347  4150 infeasible   38      263139.454          -      -  36.6  175s
H238247  4275                    263158.67304          -      -  36.6  175s
 243546  4283  postponed   36      263158.673          -      -  36.6  180s
H245079  4370                    263340.67304          -      -  36.6  181s
 250434  4407 infeasible   53      263340.673          -      -  36.5  185s
 256160  4551  postponed   43      263340.673          -      -  36.4  190s
H258877  4783                    264214.49375          -      -  36.4  191s
*258966  4782             120    264235.47126          -      -  36.4  191s
H260768  4611                    264417.47126          -      -  36.4  193s
 261969  4609  postponed   39      264417.471          -      -  36.4  195s
H267705  4860                    264625.72743          -      -  36.3  198s
*267784  4860             135    264627.11278          -      -  36.3  198s
H268320  4794                    264809.11278          -      -  36.3  199s
 269168  4829  postponed   40      264809.113          -      -  36.2  200s
H271429  4982                    266528.21377          -      -  36.2  201s
H272723  5295                    266532.34069          -      -  36.1  202s
H272860  5295                    266532.37141          -      -  36.1  202s
H272928  5231                    266710.21377          -      -  36.1  202s
H275805  5134                    266738.83156          -      -  36.0  204s
 276852  5102 infeasible   38      266738.832          -      -  36.0  205s
*280012  5230             156    266738.99794          -      -  35.9  207s
*280014  5230             157    266739.00159          -      -  35.9  207s
*282754  5438             107    266741.60369          -      -  35.9  209s
*282758  5435             109    266742.31674          -      -  35.9  209s
*282761  5435             109    266742.33641          -      -  35.8  209s
 283782  5466  postponed   48      266742.336          -      -  35.8  210s
H287539  5831                    266938.15039          -      -  35.8  212s
H290475  5713                    267008.91628          -      -  35.7  213s
 291990  5925  postponed   38      267008.916          -      -  35.7  215s
 298736  6448  postponed   46      267008.916          -      -  35.6  220s
 304015  6699  postponed   44      267008.916          -      -  35.6  225s
H308442  6893                    267008.91633          -      -  35.7  229s
 309578  7012 infeasible   41      267008.916          -      -  35.7  230s
 314933  7330 infeasible   41      267008.916          -      -  35.7  235s
 321048  7643  postponed   38      267008.916          -      -  35.7  241s
 326055  7814  postponed   50      267008.916          -      -  35.6  245s
 332017  7934  postponed   50      267008.916          -      -  35.6  250s
 337970  8085 infeasible   41      267008.916          -      -  35.5  255s
 345397  8097  postponed   36      267008.916          -      -  35.4  260s
*347995  8200             141    267009.01101          -      -  35.3  262s
*347997  8200             142    267009.01509          -      -  35.3  262s
 351694  8237 infeasible   36      267009.015          -      -  35.3  265s
H354243  8134                    267195.01509          -      -  35.2  267s
 358442  8134  postponed   38      267195.015          -      -  35.2  270s
 364614  8138  postponed   38      267195.015          -      -  35.1  275s
 371750  8093 infeasible   41      267195.015          -      -  35.0  280s
 377649  8063  postponed   45      267195.015          -      -  35.0  285s
H379338  8045                    267398.32227          -      -  35.0  286s
H381502  8061                    267590.32227          -      -  35.0  288s
 383124  8133 infeasible   41      267590.322          -      -  35.0  290s
 389265  8276  postponed   44      267590.322          -      -  34.9  295s
 395943  8486 infeasible   40      267590.322          -      -  35.0  300s
 400533  8649 infeasible   36      267590.322          -      -  35.0  305s
 406363  8882 infeasible   33      267590.322          -      -  35.1  311s
H409352  8793                    268096.34232          -      -  35.1  313s
 411004  8840  postponed   41      268096.342          -      -  35.2  315s
 415880  8924  postponed   48      268096.342          -      -  35.3  320s
 421995  9078  postponed   43      268096.342          -      -  35.3  325s
 426921  9207  postponed   37      268096.342          -      -  35.4  330s
 431046  9281  postponed   30      268096.342          -      -  35.4  335s
 436722  9394  postponed   44      268096.342          -      -  35.5  340s
 441318  9390  postponed   49      268096.342          -      -  35.6  345s
 445847  9459  postponed   50      268096.342          -      -  35.7  351s
 450280  9532 infeasible   53      268096.342          -      -  35.8  355s
 455079  9494 infeasible   48      268096.342          -      -  35.9  360s
 459854  9453  postponed   52      268096.342          -      -  36.0  366s
H464110  9443                    268117.99150          -      -  36.0  369s
 464285  9455 infeasible   55      268117.991          -      -  36.0  371s
 469112  9469  postponed   39      268117.991          -      -  36.1  375s
 473829  9423 infeasible   39      268117.991          -      -  36.1  380s
 479720  9425  postponed   52      268117.991          -      -  36.2  385s
 484650  9400  postponed   46      268117.991          -      -  36.3  390s
 490454  9443  postponed   46      268117.991          -      -  36.4  395s
 494942  9513 infeasible   41      268117.991          -      -  36.5  400s
 500424  9481  postponed   48      268117.991          -      -  36.7  405s
 505255  9495 infeasible   48      268117.991          -      -  36.7  410s
 510989  9482  postponed   38      268117.991          -      -  36.9  416s
 514331  9485 infeasible   40      268117.991          -      -  36.9  420s
 517570  9451 infeasible   57      268117.991          -      -  37.0  425s
 522418  9356 infeasible   54      268117.991          -      -  37.1  430s
 527366  9369  postponed   33      268117.991          -      -  37.2  435s
 532241  9382  postponed   40      268117.991          -      -  37.3  440s
 537202  9586  postponed   45      268117.991          -      -  37.3  445s
 542059  9716  postponed   35      268117.991          -      -  37.4  450s
 548911  9882 infeasible   40      268117.991          -      -  37.4  455s
 553765 10012 infeasible   39      268117.991          -      -  37.5  460s
 559740 10117 infeasible   40      268117.991          -      -  37.5  465s
 564756 10099 infeasible   44      268117.991          -      -  37.6  470s
 570736 10163 infeasible   53      268117.991          -      -  37.6  475s
H571644 10124                    268354.02224          -      -  37.7  475s
 575292 10146 infeasible   49      268354.022          -      -  37.7  480s
 579983 10278 infeasible   47      268354.022          -      -  37.7  485s
H584441 10295                    268590.25850          -      -  37.8  488s
 585622 10309 infeasible   57      268590.259          -      -  37.8  490s
 590550 10470  postponed   50      268590.259          -      -  37.8  495s
 596488 10639  postponed   34      268590.259          -      -  37.8  501s
 601614 10704 infeasible   46      268590.259          -      -  37.8  506s
H603003 10032                    272232.67085          -      -  37.8  507s
 607202 10131  postponed   39      272232.671          -      -  37.8  510s
H610316  8901                    283371.40431          -      -  37.8  513s
 612623  8916  postponed   38      283371.404          -      -  37.8  515s
 618770  9043 infeasible   56      283371.404          -      -  37.8  520s
 626366  9066  postponed   40      283371.404          -      -  37.7  525s
H629596  9049                    283528.89464          -      -  37.7  527s
 631984  9052 infeasible   53      283528.895          -      -  37.7  530s
H637585  9044                    284317.22191          -      -  37.7  534s
 637837  9026 infeasible   48      284317.222          -      -  37.7  535s
H643706  9010                    284501.92079          -      -  37.7  539s
 643707  9020 infeasible   42      284501.921          -      -  37.7  540s
 649620  9038 infeasible   48      284501.921          -      -  37.7  545s
H652017  9013                    284773.92206          -      -  37.7  546s
 655679  9020  postponed   40      284773.922          -      -  37.7  550s
 661515  8979  postponed   38      284773.922          -      -  37.8  555s
 667671  8944 infeasible   38      284773.922          -      -  37.8  560s
 673907  9054  postponed   49      284773.922          -      -  37.8  565s
 679819  9048  postponed   38      284773.922          -      -  37.8  570s
 684753  9057  postponed   36      284773.922          -      -  37.8  575s
 690322  9126 infeasible   46      284773.922          -      -  37.8  580s
 694774  9079  postponed   49      284773.922          -      -  37.8  585s
 700790  9067 infeasible   39      284773.922          -      -  37.8  591s
 705136  9067  postponed   40      284773.922          -      -  37.8  595s
 708030  9083 infeasible   48      284773.922          -      -  37.8  600s

Explored 708915 nodes (26831596 simplex iterations) in 600.02 seconds (184.31 work units)
Thread count was 8 (of 8 available processors)

Solution count 10: 284774 284502 284317 ... 268096

Time limit reached
Best objective 2.847739220559e+05, best bound -, gap -

User-callback calls 1429481, time in user-callback 14.44 sec
